\ Model ILP
\ LP format - for model browsing. Use MPS format to capture full model detail.
Maximize
  3.952830188679245 finalTriple[0] + 3 finalTriple[1]
   + 2.90566037735849 finalTriple[2] + 2.888888888888889 finalTriple[3]
   + 2.842105263157895 finalTriple[4]
Subject To
 con1_0: finalTriple[1] + finalTriple[3] <= 1
 con2: finalTriple[0] >= 1
 con5_0: <= 1
 con5_1: <= 1
 con5_2: <= 1
 con5_3: <= 1
 con5_4: <= 1
 con5_5: <= 1
 con5_6: <= 1
 con5_7: <= 1
 con5_8: <= 1
Bounds
Binaries
 finalTriple[0] finalTriple[1] finalTriple[2] finalTriple[3] finalTriple[4]
End
